(declare-fun temp65436_1 () (_ BitVec 64))
(declare-fun temp65436_2 () (_ BitVec 64))
(declare-fun var77740 () (_ BitVec 64))
(declare-fun k!0 () Bool)
(declare-fun ARGNAME_filter_NAMEEND_DIM () (_ BitVec 64))
(declare-fun ARGNAME_data_format_NAMEEND_STRFMT () (_ BitVec 64))
(declare-fun temp65436_3 () (_ BitVec 64))
(declare-fun ARGNAME_out_backprop_NAMEEND_DIM () (_ BitVec 64))
(declare-fun var77770 () (_ BitVec 64))
(declare-fun temp65436_4 () (_ BitVec 64))
(declare-fun temp65436_5 () (_ BitVec 64))
(declare-fun ARGNAME_filter_NAMEEND_DIMSIZE
             ()
             (Array (_ BitVec 64) (_ BitVec 64)))
(declare-fun temp65436_6 () (_ BitVec 64))
(declare-fun temp65436_7 () (_ BitVec 64))
(declare-fun temp65436_8 () (_ BitVec 64))
(declare-fun temp65436_9 () (_ BitVec 64))
(declare-fun temp65436_10 () (_ BitVec 64))
(declare-fun temp65436_11 () (_ BitVec 64))
(declare-fun temp65436_12 () (_ BitVec 64))
(declare-fun temp65436_13 () (_ BitVec 64))
(declare-fun temp65436_14 () (_ BitVec 64))
(declare-fun temp65436_15 () (_ BitVec 64))
(declare-fun temp65436_16 () (_ BitVec 64))
(declare-fun temp65436_17 () (_ BitVec 64))
(declare-fun temp65436_18 () (_ BitVec 64))
(declare-fun var77799 () (_ BitVec 64))
(declare-fun temp65436_19 () (_ BitVec 64))
(declare-fun ARGNAME_out_backprop_NAMEEND_DIMSIZE
             ()
             (Array (_ BitVec 64) (_ BitVec 64)))
(declare-fun temp65436_20 () (_ BitVec 64))
(declare-fun temp65436_21 () (_ BitVec 64))
(declare-fun temp65436_22 () (_ BitVec 64))
(declare-fun temp65436_23 () (_ BitVec 64))
(declare-fun temp65436_24 () (_ BitVec 64))
(declare-fun temp65436_25 () (_ BitVec 64))
(declare-fun temp65436_26 () (_ BitVec 64))
(declare-fun temp65436_27 () (_ BitVec 64))
(declare-fun temp65436_28 () (_ BitVec 64))
(declare-fun temp65436_29 () (_ BitVec 64))
(declare-fun temp65436_30 () (_ BitVec 64))
(declare-fun temp65436_31 () (_ BitVec 64))
(declare-fun temp65436_32 () (_ BitVec 64))
(declare-fun var77832 () (_ BitVec 64))
(declare-fun temp65436_33 () (_ BitVec 64))
(declare-fun temp65436_34 () (_ BitVec 64))
(declare-fun var77833 () (_ BitVec 64))
(declare-fun var77834 () (_ BitVec 64))
(declare-fun temp65436_35 () (_ BitVec 64))
(declare-fun temp65436_36 () (_ BitVec 64))
(declare-fun var275510 () (_ BitVec 64))
(declare-fun temp65436_37 () (_ BitVec 64))
(declare-fun var275528 () (_ BitVec 64))
(declare-fun temp65436_38 () (_ BitVec 64))
(declare-fun temp65436_39 () (_ BitVec 64))
(declare-fun var406582 () (_ BitVec 64))
(declare-fun temp65436_40 () (_ BitVec 64))
(declare-fun var406600 () (_ BitVec 64))
(declare-fun temp65436_41 () (_ BitVec 64))
(declare-fun temp65436_42 () (_ BitVec 64))
(declare-fun var537654 () (_ BitVec 64))
(declare-fun temp65436_43 () (_ BitVec 64))
(declare-fun var537672 () (_ BitVec 64))
(declare-fun temp65436_44 () (_ BitVec 64))
(declare-fun temp65436_46 () (_ BitVec 64))
(declare-fun temp65436_45 () (_ BitVec 64))
(declare-fun temp65436_48 () (_ BitVec 64))
(declare-fun temp65436_47 () (_ BitVec 64))
(declare-fun temp65436_50 () (_ BitVec 64))
(declare-fun temp65436_49 () (_ BitVec 64))
(declare-fun temp65436_51 () (_ BitVec 64))
(declare-fun var795723 () (_ BitVec 64))
(declare-fun var795702 () (_ BitVec 64))
(declare-fun var664608 () (_ BitVec 64))
(declare-fun temp65436_52 () (_ BitVec 64))
(declare-fun temp65436_53 () (_ BitVec 64))
(declare-fun var861259 () (_ BitVec 64))
(declare-fun var861238 () (_ BitVec 64))
(declare-fun var664611 () (_ BitVec 64))
(declare-fun temp65436_54 () (_ BitVec 64))
(declare-fun temp65436_56 () (_ BitVec 64))
(declare-fun temp65436_55 () (_ BitVec 64))
(declare-fun temp65436_58 () (_ BitVec 64))
(declare-fun temp65436_57 () (_ BitVec 64))
(declare-fun temp65436_60 () (_ BitVec 64))
(declare-fun temp65436_59 () (_ BitVec 64))
(declare-fun temp65436_61 () (_ BitVec 64))
(declare-fun var992306 () (_ BitVec 64))
(declare-fun temp65436_62 () (_ BitVec 64))
(declare-fun var992307 () (_ BitVec 64))
(declare-fun var992308 () (_ BitVec 64))
(declare-fun var992304 () (_ BitVec 64))
(declare-fun var599004 () (_ BitVec 64))
(declare-fun temp65436_63 () (_ BitVec 64))
(declare-fun var1057842 () (_ BitVec 64))
(declare-fun temp65436_64 () (_ BitVec 64))
(declare-fun var1057843 () (_ BitVec 64))
(declare-fun var1057844 () (_ BitVec 64))
(declare-fun var1057840 () (_ BitVec 64))
(declare-fun var599011 () (_ BitVec 64))
(declare-fun temp65436_65 () (_ BitVec 64))
(declare-fun var1123378 () (_ BitVec 64))
(declare-fun temp65436_66 () (_ BitVec 64))
(declare-fun var1123379 () (_ BitVec 64))
(declare-fun var1123380 () (_ BitVec 64))
(declare-fun var1123376 () (_ BitVec 64))
(declare-fun var599016 () (_ BitVec 64))
(declare-fun var78095 () (_ BitVec 64))
(declare-fun temp65436_67 () (_ BitVec 64))
(declare-fun temp65436_68 () (_ BitVec 64))
(declare-fun var78096 () (_ BitVec 64))
(declare-fun var78179 () (_ BitVec 64))
(assert (or (= ARGNAME_data_format_NAMEEND_STRFMT #x0000000000000000)
    (= ARGNAME_data_format_NAMEEND_STRFMT #x0000000000000001)
    (= ARGNAME_data_format_NAMEEND_STRFMT #x0000000000000002)
    (= ARGNAME_data_format_NAMEEND_STRFMT #x0000000000000003)
    (= ARGNAME_data_format_NAMEEND_STRFMT #x0000000000000004)
    (= ARGNAME_data_format_NAMEEND_STRFMT #x0000000000000005)))
(assert (= temp65436_1 #x0000000000000005))
(assert (= var77740
   (ite (= ARGNAME_filter_NAMEEND_DIM temp65436_1)
        #x0000000000000001
        #x0000000000000000)))
(assert (= temp65436_2 #x0000000000000001))
(assert (= var77740 temp65436_2))
(assert (= temp65436_3 #x0000000000000005))
(assert (= var77770
   (ite (= ARGNAME_out_backprop_NAMEEND_DIM temp65436_3)
        #x0000000000000001
        #x0000000000000000)))
(assert (= temp65436_4 #x0000000000000001))
(assert (= var77770 temp65436_4))
(assert (= temp65436_5 #x0000000000000000))
(assert (= temp65436_6 (select ARGNAME_filter_NAMEEND_DIMSIZE temp65436_5)))
(assert (= temp65436_7 #x0000000000000001))
(assert (= temp65436_8 (select ARGNAME_filter_NAMEEND_DIMSIZE temp65436_7)))
(assert (= temp65436_9 #x0000000000000002))
(assert (= temp65436_10 (select ARGNAME_filter_NAMEEND_DIMSIZE temp65436_9)))
(assert (= temp65436_11 #x0000000000000003))
(assert (= temp65436_12 (select ARGNAME_filter_NAMEEND_DIMSIZE temp65436_11)))
(assert (= temp65436_13 #x0000000000000004))
(assert (= temp65436_14 (select ARGNAME_filter_NAMEEND_DIMSIZE temp65436_13)))
(assert (= temp65436_15 #x0000000000000005))
(assert (= temp65436_16 (select ARGNAME_filter_NAMEEND_DIMSIZE temp65436_15)))
(assert (= temp65436_17 #x0000000000000003))
(assert (= temp65436_18 (select ARGNAME_filter_NAMEEND_DIMSIZE temp65436_17)))
(assert (= var77799 temp65436_18))
(assert (= temp65436_19 #x0000000000000000))
(assert (= temp65436_20 (select ARGNAME_out_backprop_NAMEEND_DIMSIZE temp65436_19)))
(assert (= temp65436_21 #x0000000000000001))
(assert (= temp65436_22 (select ARGNAME_out_backprop_NAMEEND_DIMSIZE temp65436_21)))
(assert (= temp65436_23 #x0000000000000002))
(assert (= temp65436_24 (select ARGNAME_out_backprop_NAMEEND_DIMSIZE temp65436_23)))
(assert (= temp65436_25 #x0000000000000003))
(assert (= temp65436_26 (select ARGNAME_out_backprop_NAMEEND_DIMSIZE temp65436_25)))
(assert (= temp65436_27 #x0000000000000004))
(assert (= temp65436_28 (select ARGNAME_out_backprop_NAMEEND_DIMSIZE temp65436_27)))
(assert (= temp65436_29 #x0000000000000005))
(assert (= temp65436_30 (select ARGNAME_out_backprop_NAMEEND_DIMSIZE temp65436_29)))
(assert (= temp65436_31 #x0000000000000004))
(assert (= temp65436_32 (select ARGNAME_out_backprop_NAMEEND_DIMSIZE temp65436_31)))
(assert (= var77832 temp65436_32))
(assert (= temp65436_33 #x0000000000000004))
(assert (= temp65436_34 (select ARGNAME_filter_NAMEEND_DIMSIZE temp65436_33)))
(assert (= var77833 temp65436_34))
(assert (= var77834 (ite (= var77832 var77833) #x0000000000000001 #x0000000000000000)))
(assert (= temp65436_35 #x0000000000000001))
(assert (= var77834 temp65436_35))
(assert (= temp65436_36 #x0000000000000001))
(assert (= var275510 temp65436_36))
(assert (= temp65436_37 #x0000000000000001))
(assert (= var275528
   (ite (bvslt var275510 temp65436_37) #x0000000000000001 #x0000000000000000)))
(assert (= temp65436_38 #x0000000000000000))
(assert (= var275528 temp65436_38))
(assert (= temp65436_39 #x0000000000000001))
(assert (= var406582 temp65436_39))
(assert (= temp65436_40 #x0000000000000001))
(assert (= var406600
   (ite (bvslt var406582 temp65436_40) #x0000000000000001 #x0000000000000000)))
(assert (= temp65436_41 #x0000000000000000))
(assert (= var406600 temp65436_41))
(assert (= temp65436_42 #x0000000000000001))
(assert (= var537654 temp65436_42))
(assert (= temp65436_43 #x0000000000000001))
(assert (= var537672
   (ite (bvslt var537654 temp65436_43) #x0000000000000001 #x0000000000000000)))
(assert (= temp65436_44 #x0000000000000000))
(assert (= var537672 temp65436_44))
(assert (= temp65436_46 #x00000000000000ff))
(assert (= temp65436_45 temp65436_46))
(assert (= temp65436_48 #x00000000000000ff))
(assert (= temp65436_47 temp65436_48))
(assert (= temp65436_50 #x00000000000000ff))
(assert (= temp65436_49 temp65436_50))
(assert (= temp65436_51 #x0000000000000000))
(assert (= var795723 temp65436_51))
(assert (= var795702 var795723))
(assert (= var664608 var795702))
(assert (= temp65436_52 #x0000000000000000))
(assert (= var664608 temp65436_52))
(assert (= temp65436_53 #x0000000000000000))
(assert (= var861259 temp65436_53))
(assert (= var861238 var861259))
(assert (= var664611 var861238))
(assert (= temp65436_54 #x0000000000000000))
(assert (= var664611 temp65436_54))
(assert (= temp65436_56 #x0000000000000000))
(assert (= temp65436_55 temp65436_56))
(assert (= temp65436_58 #x0000000000000000))
(assert (= temp65436_57 temp65436_58))
(assert (= temp65436_60 #x0000000000000000))
(assert (= temp65436_59 temp65436_60))
(assert (= temp65436_61 #x0000000000008000))
(assert (= var992306 temp65436_61))
(assert (= temp65436_62 #x0000000000000001))
(assert (= var992307
   (ite (bvslt temp65436_59 temp65436_62) #x0000000000000001 #x0000000000000000)))
(assert (= var992308 (ite (= var992307 #x0000000000000001) var992306 temp65436_59)))
(assert (= var992304 var992308))
(assert (= var599004 var992304))
(assert (= temp65436_63 #x0000000000040000))
(assert (= var1057842 temp65436_63))
(assert (= temp65436_64 #x0000000000000001))
(assert (= var1057843
   (ite (bvslt temp65436_57 temp65436_64) #x0000000000000001 #x0000000000000000)))
(assert (= var1057844 (ite (= var1057843 #x0000000000000001) var1057842 temp65436_57)))
(assert (= var1057840 var1057844))
(assert (= var599011 var1057840))
(assert (= temp65436_65 #x0000000000200000))
(assert (= var1123378 temp65436_65))
(assert (= temp65436_66 #x0000000000000001))
(assert (= var1123379
   (ite (bvslt temp65436_55 temp65436_66) #x0000000000000001 #x0000000000000000)))
(assert (= var1123380 (ite (= var1123379 #x0000000000000001) var1123378 temp65436_55)))
(assert (= var1123376 var1123380))
(assert (= var599016 var1123376))
(assert (= var78095 var599016))
(assert (= temp65436_67 #x0000000000000003))
(assert (= temp65436_68 #xffffffffffffffff))
(assert (= var78179 (bvadd var78096 temp65436_68)))
(model-add temp65436_1 () (_ BitVec 64) #x0000000000000005)
(model-add temp65436_2 () (_ BitVec 64) #x0000000000000001)
(model-add var77740 () (_ BitVec 64) #x0000000000000001)
(model-del k!0)
(model-add ARGNAME_filter_NAMEEND_DIM
           ()
           (_ BitVec 64)
           (ite k!0 #x0000000000000005 (bvnot #x0000000000000005)))


